(set-logic QF_UF)
(set-option :produce-models true)
(declare-const A Bool)
(declare-const B Bool)
(declare-const C Bool)
(declare-const D Bool)
(assert
	(=
		(and A B )
		(and C D)
	) 
)
(check-sat)
(get-model)
(exit)
